(declare-fun temp722_1 () (_ BitVec 64))
(declare-fun temp722_2 () (_ BitVec 64))
(declare-fun var71558 () (_ BitVec 64))
(declare-fun k!0 () Bool)
(declare-fun ARGNAME_input_NAMEEND_DIM () (_ BitVec 64))
(declare-fun temp722_3 () (_ BitVec 64))
(declare-fun var71602 () (_ BitVec 64))
(declare-fun temp722_4 () (_ BitVec 64))
(declare-fun temp722_5 () (_ BitVec 64))
(declare-fun var65904 () (_ BitVec 64))
(declare-fun temp722_6 () (_ BitVec 64))
(declare-fun temp722_7 () (_ BitVec 64))
(declare-fun ARGNAME_input_NAMEEND_DIMSIZE
             ()
             (Array (_ BitVec 64) (_ BitVec 64)))
(declare-fun temp722_8 () (_ BitVec 64))
(declare-fun temp722_9 () (_ BitVec 64))
(declare-fun temp722_10 () (_ BitVec 64))
(declare-fun temp722_11 () (_ BitVec 64))
(declare-fun temp722_12 () (_ BitVec 64))
(declare-fun temp722_13 () (_ BitVec 64))
(declare-fun temp722_14 () (_ BitVec 64))
(declare-fun temp722_15 () (_ BitVec 64))
(declare-fun temp722_16 () (_ BitVec 64))
(declare-fun temp722_17 () (_ BitVec 64))
(declare-fun temp722_18 () (_ BitVec 64))
(declare-fun temp722_19 () (_ BitVec 64))
(declare-fun temp722_20 () (_ BitVec 64))
(declare-fun temp722_21 () (_ BitVec 64))
(declare-fun temp722_22 () (_ BitVec 64))
(declare-fun temp722_23 () (_ BitVec 64))
(declare-fun temp722_25 () (_ BitVec 64))
(declare-fun temp722_26 () (_ BitVec 64))
(declare-fun temp722_24 () (_ BitVec 64))
(declare-fun temp722_27 () (_ BitVec 64))
(declare-fun temp722_28 () (_ BitVec 64))
(declare-fun temp722_29 () (_ BitVec 64))
(declare-fun ARGNAME_target_NAMEEND_DIMSIZE
             ()
             (Array (_ BitVec 64) (_ BitVec 64)))
(declare-fun temp722_30 () (_ BitVec 64))
(declare-fun temp722_31 () (_ BitVec 64))
(declare-fun temp722_32 () (_ BitVec 64))
(declare-fun temp722_33 () (_ BitVec 64))
(declare-fun temp722_34 () (_ BitVec 64))
(declare-fun temp722_35 () (_ BitVec 64))
(declare-fun temp722_36 () (_ BitVec 64))
(declare-fun temp722_37 () (_ BitVec 64))
(declare-fun temp722_38 () (_ BitVec 64))
(declare-fun temp722_39 () (_ BitVec 64))
(declare-fun temp722_40 () (_ BitVec 64))
(declare-fun temp722_41 () (_ BitVec 64))
(declare-fun temp722_42 () (_ BitVec 64))
(declare-fun temp722_43 () (_ BitVec 64))
(declare-fun temp722_44 () (_ BitVec 64))
(declare-fun temp722_45 () (_ BitVec 64))
(declare-fun temp722_47 () (_ BitVec 64))
(declare-fun temp722_48 () (_ BitVec 64))
(declare-fun temp722_46 () (_ BitVec 64))
(declare-fun var71627 () (_ BitVec 64))
(declare-fun temp722_49 () (_ BitVec 64))
(declare-fun temp722_50 () (_ BitVec 64))
(declare-fun var71710 () (_ BitVec 64))
(declare-fun temp722_51 () (_ BitVec 64))
(declare-fun temp722_52 () (_ BitVec 64))
(declare-fun var71713 () (_ BitVec 64))
(declare-fun temp722_53 () (_ BitVec 64))
(declare-fun temp722_54 () (_ BitVec 64))
(declare-fun var71756 () (_ BitVec 64))
(declare-fun temp722_55 () (_ BitVec 64))
(declare-fun temp722_56 () (_ BitVec 64))
(declare-fun temp722_58 () (_ BitVec 64))
(declare-fun temp722_59 () (_ BitVec 64))
(declare-fun temp722_57 () (_ BitVec 64))
(declare-fun temp722_60 () (_ BitVec 64))
(declare-fun var67396 () (_ BitVec 64))
(declare-fun temp722_62 () (_ BitVec 64))
(declare-fun temp722_63 () (_ BitVec 64))
(declare-fun temp722_61 () (_ BitVec 64))
(declare-fun temp722_64 () (_ BitVec 64))
(declare-fun var203434 () (_ BitVec 64))
(declare-fun var203436 () (_ BitVec 64))
(declare-fun var270103 () (_ BitVec 64))
(declare-fun var270104 () (_ BitVec 64))
(declare-fun var270117 () (_ BitVec 64))
(declare-fun var270119 () (_ BitVec 64))
(declare-fun temp722_65 () (_ BitVec 64))
(declare-fun var270142 () (_ BitVec 64))
(declare-fun var270144 () (_ BitVec 64))
(declare-fun var394735 () (_ BitVec 64))
(declare-fun temp722_66 () (_ BitVec 64))
(declare-fun var2563297 () (_ BitVec 64))
(declare-fun var2563309 () (_ BitVec 64))
(declare-fun var4332202 () (_ BitVec 64))
(declare-fun ARGNAME_target_NAMEEND_DIM () (_ BitVec 64))
(declare-fun var4332204 () (_ BitVec 64))
(declare-fun var4398871 () (_ BitVec 64))
(declare-fun var4398872 () (_ BitVec 64))
(declare-fun var4398885 () (_ BitVec 64))
(declare-fun var4398887 () (_ BitVec 64))
(declare-fun temp722_67 () (_ BitVec 64))
(declare-fun var4398910 () (_ BitVec 64))
(declare-fun var4398912 () (_ BitVec 64))
(declare-fun var4523503 () (_ BitVec 64))
(declare-fun temp722_68 () (_ BitVec 64))
(declare-fun var4594346 () (_ BitVec 64))
(declare-fun var4594348 () (_ BitVec 64))
(declare-fun var4661015 () (_ BitVec 64))
(declare-fun var4661016 () (_ BitVec 64))
(declare-fun var4661029 () (_ BitVec 64))
(declare-fun var4661031 () (_ BitVec 64))
(declare-fun temp722_69 () (_ BitVec 64))
(declare-fun var4661054 () (_ BitVec 64))
(declare-fun var4661056 () (_ BitVec 64))
(declare-fun var4785647 () (_ BitVec 64))
(declare-fun temp722_70 () (_ BitVec 64))
(declare-fun var4916876 () (_ BitVec 64))
(declare-fun var4982500 () (_ BitVec 64))
(declare-fun var5048087 () (_ BitVec 64))
(declare-fun var5179229 () (_ BitVec 64))
(declare-fun temp722_71 () (_ BitVec 64))
(declare-fun var5506700 () (_ BitVec 64))
(declare-fun var5572324 () (_ BitVec 64))
(declare-fun var5637911 () (_ BitVec 64))
(declare-fun var5769053 () (_ BitVec 64))
(declare-fun temp722_72 () (_ BitVec 64))
(declare-fun ARGNAME_input_NAMEEND_NUMELEMENT () (_ BitVec 64))
(declare-fun var71980 () (_ BitVec 64))
(declare-fun temp722_73 () (_ BitVec 64))
(declare-fun temp722_75 () (_ BitVec 64))
(declare-fun temp722_74 () (_ BitVec 64))
(declare-fun temp722_77 () (_ BitVec 64))
(declare-fun temp722_76 () (_ BitVec 64))
(declare-fun temp722_78 () (_ BitVec 64))
(declare-fun ARGNAME_target_NAMEEND_NUMELEMENT () (_ BitVec 64))
(declare-fun var72115 () (_ BitVec 64))
(declare-fun temp722_79 () (_ BitVec 64))
(declare-fun temp722_81 () (_ BitVec 64))
(declare-fun temp722_80 () (_ BitVec 64))
(declare-fun temp722_83 () (_ BitVec 64))
(declare-fun temp722_82 () (_ BitVec 64))
(declare-fun temp722_84 () (_ BitVec 64))
(declare-fun ARGNAME_reduction_NAMEEND () (_ BitVec 64))
(declare-fun var72212 () (_ BitVec 64))
(declare-fun temp722_85 () (_ BitVec 64))
(declare-fun var6560418 () (_ BitVec 64))
(assert (= temp722_1 #x0000000000000001))
(assert (= var71558
   (ite (bvslt ARGNAME_input_NAMEEND_DIM temp722_1)
        #x0000000000000001
        #x0000000000000000)))
(assert (= temp722_2 #x0000000000000000))
(assert (= var71558 temp722_2))
(assert (= temp722_3 #x0000000000000001))
(assert (= var71602
   (ite (= ARGNAME_input_NAMEEND_DIM temp722_3)
        #x0000000000000001
        #x0000000000000000)))
(assert (= temp722_4 #x0000000000000000))
(assert (= var71602 temp722_4))
(assert (= temp722_5 #x0000000000000000))
(assert (= var65904 temp722_5))
(assert (= temp722_6 #x0000000000000000))
(assert (= temp722_7 temp722_6))
(assert (= temp722_8 (select ARGNAME_input_NAMEEND_DIMSIZE temp722_7)))
(assert (= temp722_9 #x0000000000000001))
(assert (= temp722_10 temp722_9))
(assert (= temp722_11 (select ARGNAME_input_NAMEEND_DIMSIZE temp722_10)))
(assert (= temp722_12 #x0000000000000002))
(assert (= temp722_13 temp722_12))
(assert (= temp722_14 (select ARGNAME_input_NAMEEND_DIMSIZE temp722_13)))
(assert (= temp722_15 #x0000000000000003))
(assert (= temp722_16 temp722_15))
(assert (= temp722_17 (select ARGNAME_input_NAMEEND_DIMSIZE temp722_16)))
(assert (= temp722_18 #x0000000000000004))
(assert (= temp722_19 temp722_18))
(assert (= temp722_20 (select ARGNAME_input_NAMEEND_DIMSIZE temp722_19)))
(assert (= temp722_21 #x0000000000000005))
(assert (= temp722_22 temp722_21))
(assert (= temp722_23 (select ARGNAME_input_NAMEEND_DIMSIZE temp722_22)))
(assert (= temp722_25 var65904))
(assert (= temp722_26 (select ARGNAME_input_NAMEEND_DIMSIZE temp722_25)))
(assert (= temp722_24 temp722_26))
(assert (= temp722_27 #x0000000000000000))
(assert (= var65904 temp722_27))
(assert (= temp722_28 #x0000000000000000))
(assert (= temp722_29 temp722_28))
(assert (= temp722_30 (select ARGNAME_target_NAMEEND_DIMSIZE temp722_29)))
(assert (= temp722_31 #x0000000000000001))
(assert (= temp722_32 temp722_31))
(assert (= temp722_33 (select ARGNAME_target_NAMEEND_DIMSIZE temp722_32)))
(assert (= temp722_34 #x0000000000000002))
(assert (= temp722_35 temp722_34))
(assert (= temp722_36 (select ARGNAME_target_NAMEEND_DIMSIZE temp722_35)))
(assert (= temp722_37 #x0000000000000003))
(assert (= temp722_38 temp722_37))
(assert (= temp722_39 (select ARGNAME_target_NAMEEND_DIMSIZE temp722_38)))
(assert (= temp722_40 #x0000000000000004))
(assert (= temp722_41 temp722_40))
(assert (= temp722_42 (select ARGNAME_target_NAMEEND_DIMSIZE temp722_41)))
(assert (= temp722_43 #x0000000000000005))
(assert (= temp722_44 temp722_43))
(assert (= temp722_45 (select ARGNAME_target_NAMEEND_DIMSIZE temp722_44)))
(assert (= temp722_47 var65904))
(assert (= temp722_48 (select ARGNAME_target_NAMEEND_DIMSIZE temp722_47)))
(assert (= temp722_46 temp722_48))
(assert (= var71627
   (ite (= temp722_24 temp722_46) #x0000000000000001 #x0000000000000000)))
(assert (= temp722_49 #x0000000000000001))
(assert (= var71627 temp722_49))
(assert (= temp722_50 #x0000000000000001))
(assert (= var71710
   (ite (= ARGNAME_input_NAMEEND_DIM temp722_50)
        #x0000000000000001
        #x0000000000000000)))
(assert (= temp722_51 #x0000000000000000))
(assert (= var71710 temp722_51))
(assert (= temp722_52 #x0000000000000002))
(assert (= var71713
   (ite (= ARGNAME_input_NAMEEND_DIM temp722_52)
        #x0000000000000001
        #x0000000000000000)))
(assert (= temp722_53 #x0000000000000000))
(assert (= var71713 temp722_53))
(assert (= temp722_54 #x0000000000000004))
(assert (= var71756
   (ite (= ARGNAME_input_NAMEEND_DIM temp722_54)
        #x0000000000000001
        #x0000000000000000)))
(assert (= temp722_55 #x0000000000000000))
(assert (= var71756 temp722_55))
(assert (= temp722_56 #x0000000000000000))
(assert (= var65904 temp722_56))
(assert (= temp722_58 var65904))
(assert (= temp722_59 (select ARGNAME_input_NAMEEND_DIMSIZE temp722_58)))
(assert (= temp722_57 temp722_59))
(assert (= temp722_60 #x0000000000000001))
(assert (= var67396 temp722_60))
(assert (= temp722_62 var67396))
(assert (= temp722_63 (select ARGNAME_input_NAMEEND_DIMSIZE temp722_62)))
(assert (= temp722_61 temp722_63))
(assert (= temp722_64 #x0000000000000002))
(assert (= var203434 temp722_64))
(assert (= var203436 (bvsub ARGNAME_input_NAMEEND_DIM var203434)))
(assert (= var270103 var203434))
(assert (= var270104 var203436))
(assert (= var270117 (bvadd var270104 var270103)))
(assert (= var270119
   (ite (bvsgt var270117 ARGNAME_input_NAMEEND_DIM)
        #x0000000000000001
        #x0000000000000000)))
(assert (= temp722_65 #x0000000000000000))
(assert (= var270119 temp722_65))
(assert (= var270142 var270103))
(assert (= var270144 var270104))
(assert (= var394735 var270144))
(assert (= temp722_66 #x0000000000000001))
(assert (= var2563297 temp722_66))
(assert (= var2563309 var2563297))
(assert (= var4332202 var67396))
(assert (= var4332204 (bvsub ARGNAME_target_NAMEEND_DIM var4332202)))
(assert (= var4398871 var4332202))
(assert (= var4398872 var4332204))
(assert (= var4398885 (bvadd var4398872 var4398871)))
(assert (= var4398887
   (ite (bvsgt var4398885 ARGNAME_target_NAMEEND_DIM)
        #x0000000000000001
        #x0000000000000000)))
(assert (= temp722_67 #x0000000000000000))
(assert (= var4398887 temp722_67))
(assert (= var4398910 var4398871))
(assert (= var4398912 var4398872))
(assert (= var4523503 var4398912))
(assert (= temp722_68 #x0000000000000002))
(assert (= var4594346 temp722_68))
(assert (= var4594348 (bvsub ARGNAME_input_NAMEEND_DIM var4594346)))
(assert (= var4661015 var4594346))
(assert (= var4661016 var4594348))
(assert (= var4661029 (bvadd var4661016 var4661015)))
(assert (= var4661031
   (ite (bvsgt var4661029 ARGNAME_input_NAMEEND_DIM)
        #x0000000000000001
        #x0000000000000000)))
(assert (= temp722_69 #x0000000000000000))
(assert (= var4661031 temp722_69))
(assert (= var4661054 var4661015))
(assert (= var4661056 var4661016))
(assert (= var4785647 var4661056))
(assert (= temp722_70 #x0000000000000000))
(assert (= var4916876 temp722_70))
(assert (= var4982500 var4916876))
(assert (= var5048087 var4982500))
(assert (= var5179229 var5048087))
(assert (= temp722_71 #x0000000000000000))
(assert (= var5506700 temp722_71))
(assert (= var5572324 var5506700))
(assert (= var5637911 var5572324))
(assert (= var5769053 var5637911))
(assert (= temp722_72 #x0000000000000000))
(assert (= var71980
   (ite (bvsgt ARGNAME_input_NAMEEND_NUMELEMENT temp722_72)
        #x0000000000000001
        #x0000000000000000)))
(assert (= temp722_73 #x0000000000000001))
(assert (= var71980 temp722_73))
(assert (= temp722_75 #xffffffffffffffff))
(assert (= temp722_74 temp722_75))
(assert (= temp722_77 #x0000000000000004))
(assert (= temp722_76 temp722_77))
(assert (= temp722_78 #x0000000000000000))
(assert (= var72115
   (ite (bvsgt ARGNAME_target_NAMEEND_NUMELEMENT temp722_78)
        #x0000000000000001
        #x0000000000000000)))
(assert (= temp722_79 #x0000000000000000))
(assert (= var72115 temp722_79))
(assert (= temp722_81 #x0000000000000000))
(assert (= temp722_80 temp722_81))
(assert (= temp722_83 #x0000000000000003))
(assert (= temp722_82 temp722_83))
(assert (= temp722_84 #x0000000000000000))
(assert (= var72212
   (ite (= ARGNAME_reduction_NAMEEND temp722_84)
        #x0000000000000001
        #x0000000000000000)))
(assert (= temp722_85 #x0000000000000001))
(assert (= var72212 temp722_85))
(assert (= var6560418 var65904))
(model-add temp722_1 () (_ BitVec 64) #x0000000000000001)
(model-add temp722_2 () (_ BitVec 64) #x0000000000000000)
(model-add var71558 () (_ BitVec 64) #x0000000000000000)
(model-del k!0)
(model-add ARGNAME_input_NAMEEND_DIM
           ()
           (_ BitVec 64)
           (ite (or k!0 (= #x0000000000000001 #x8000000000000000))
                #x0000000000000001
                (bvsub #x0000000000000001 #x0000000000000001)))






